10  5
 3  6  4 10  2 13  0 11  1  4  28 175   5
 3  8  0  7  2 12  1  9  4  8  31 155  10
 4  6  3 10  2 11  1 11  0 10  29 153  10
 0  3  4  5  2  8  1 10  3  3  27 148   5
 3  6  0 11  2 15  4  6  1 10  22 178   5
 0 11  3  9  2 11  4  5  1  4  28 170  10
 0  6  3  5  2 15  4  7  1 10   6 150   5
 1  5  3  8  2 14  0 11  4  3  27 162   5
 0 10  3 10  2 16  4  3  1  6   3 161   5
 4  4  3  5  2 12  1  7  0 10  31 154   5
